\Problem name: compact

Minimize
OBJROW: C
Subject To
ord(0,1):  - x(0,0) + x(0,3) >= 10
ord(0,2):  x(0,2) - x(0,3) >= 1
ord(0,3):  x(0,1) - x(0,2) >= 6
ord(1,1):  - x(1,0) + x(1,3) >= 1
ord(1,2):  x(1,1) - x(1,3) >= 7
ord(1,3):  - x(1,1) + x(1,2) >= 5
ord(2,1):  x(2,2) - x(2,3) >= 9
ord(2,2):  x(2,1) - x(2,2) >= 3
ord(2,3):  x(2,0) - x(2,1) >= 7
ord(3,1):  - x(3,1) + x(3,3) >= 7
ord(3,2):  x(3,0) - x(3,3) >= 3
ord(3,3):  - x(3,0) + x(3,2) >= 9
triangle2(0,1,0):  y(0,1,0) + y(1,0,0) = 1
triangle2(0,1,1):  y(0,1,1) + y(1,0,1) = 1
triangle2(0,1,2):  y(0,1,2) + y(1,0,2) = 1
triangle2(0,1,3):  y(0,1,3) + y(1,0,3) = 1
triangle2(0,2,0):  y(0,2,0) + y(2,0,0) = 1
triangle2(0,2,1):  y(0,2,1) + y(2,0,1) = 1
triangle2(0,2,2):  y(0,2,2) + y(2,0,2) = 1
triangle2(0,2,3):  y(0,2,3) + y(2,0,3) = 1
triangle2(0,3,0):  y(0,3,0) + y(3,0,0) = 1
triangle2(0,3,1):  y(0,3,1) + y(3,0,1) = 1
triangle2(0,3,2):  y(0,3,2) + y(3,0,2) = 1
triangle2(0,3,3):  y(0,3,3) + y(3,0,3) = 1
triangle2(1,2,0):  y(1,2,0) + y(2,1,0) = 1
triangle2(1,2,1):  y(1,2,1) + y(2,1,1) = 1
triangle2(1,2,2):  y(1,2,2) + y(2,1,2) = 1
triangle2(1,2,3):  y(1,2,3) + y(2,1,3) = 1
triangle2(1,3,0):  y(1,3,0) + y(3,1,0) = 1
triangle2(1,3,1):  y(1,3,1) + y(3,1,1) = 1
triangle2(1,3,2):  y(1,3,2) + y(3,1,2) = 1
triangle2(1,3,3):  y(1,3,3) + y(3,1,3) = 1
triangle2(2,3,0):  y(2,3,0) + y(3,2,0) = 1
triangle2(2,3,1):  y(2,3,1) + y(3,2,1) = 1
triangle2(2,3,2):  y(2,3,2) + y(3,2,2) = 1
triangle2(2,3,3):  y(2,3,3) + y(3,2,3) = 1
MCLinV(0,1,0):  - x(0,0) + v(0,1,0)p - v(0,1,0)n + x(1,0) = -1
MCLinV(1,0,0):  x(0,0) + v(1,0,0)p - v(1,0,0)n - x(1,0) = -10
MCLin1(0,1,0):  u(0,1,0)p - u(0,1,0)n >= 0
MCLin2(0,1,0):  74 y(1,0,0) + u(0,1,0)p - u(0,1,0)n >= 0
MCLin3(0,1,0):  -69 y(1,0,0) - v(0,1,0)p + v(0,1,0)n + u(0,1,0)p - u(0,1,0)n >= -69
MCLin4(0,1,0):  -69 y(1,0,0) + u(0,1,0)p - u(0,1,0)n <= 0
MCLin5(0,1,0):  74 y(1,0,0) - v(0,1,0)p + v(0,1,0)n + u(0,1,0)p - u(0,1,0)n <= 74
MCLin6(1,0,0):  u(1,0,0)p - u(1,0,0)n >= 0
MCLin7(1,0,0):  80 y(0,1,0) + u(1,0,0)p - u(1,0,0)n >= 0
MCLin8(1,0,0):  -63 y(0,1,0) - v(1,0,0)p + v(1,0,0)n + u(1,0,0)p - u(1,0,0)n >= -63
MCLin9(1,0,0):  -63 y(0,1,0) + u(1,0,0)p - u(1,0,0)n <= 0
MCLin10(1,0,0):  80 y(0,1,0) - v(1,0,0)p + v(1,0,0)n + u(1,0,0)p - u(1,0,0)n <= 80
MCLinV(0,1,1):  - x(0,1) + v(0,1,1)p - v(0,1,1)n + x(1,1) = -5
MCLinV(1,0,1):  x(0,1) + v(1,0,1)p - v(1,0,1)n - x(1,1) = -7
MCLin1(0,1,1):  u(0,1,1)p - u(0,1,1)n >= 0
MCLin2(0,1,1):  69 y(1,0,1) + u(0,1,1)p - u(0,1,1)n >= 0
MCLin3(0,1,1):  -74 y(1,0,1) - v(0,1,1)p + v(0,1,1)n + u(0,1,1)p - u(0,1,1)n >= -74
MCLin4(0,1,1):  -74 y(1,0,1) + u(0,1,1)p - u(0,1,1)n <= 0
MCLin5(0,1,1):  69 y(1,0,1) - v(0,1,1)p + v(0,1,1)n + u(0,1,1)p - u(0,1,1)n <= 69
MCLin6(1,0,1):  u(1,0,1)p - u(1,0,1)n >= 0
MCLin7(1,0,1):  86 y(0,1,1) + u(1,0,1)p - u(1,0,1)n >= 0
MCLin8(1,0,1):  -57 y(0,1,1) - v(1,0,1)p + v(1,0,1)n + u(1,0,1)p - u(1,0,1)n >= -57
MCLin9(1,0,1):  -57 y(0,1,1) + u(1,0,1)p - u(1,0,1)n <= 0
MCLin10(1,0,1):  86 y(0,1,1) - v(1,0,1)p + v(1,0,1)n + u(1,0,1)p - u(1,0,1)n <= 86
MCLinV(0,1,2):  - x(0,2) + v(0,1,2)p - v(0,1,2)n + x(1,2) = -8
MCLinV(1,0,2):  x(0,2) + v(1,0,2)p - v(1,0,2)n - x(1,2) = -6
MCLin1(0,1,2):  u(0,1,2)p - u(0,1,2)n >= 0
MCLin2(0,1,2):  83 y(1,0,2) + u(0,1,2)p - u(0,1,2)n >= 0
MCLin3(0,1,2):  -60 y(1,0,2) - v(0,1,2)p + v(0,1,2)n + u(0,1,2)p - u(0,1,2)n >= -60
MCLin4(0,1,2):  -60 y(1,0,2) + u(0,1,2)p - u(0,1,2)n <= 0
MCLin5(0,1,2):  83 y(1,0,2) - v(0,1,2)p + v(0,1,2)n + u(0,1,2)p - u(0,1,2)n <= 83
MCLin6(1,0,2):  u(1,0,2)p - u(1,0,2)n >= 0
MCLin7(1,0,2):  74 y(0,1,2) + u(1,0,2)p - u(1,0,2)n >= 0
MCLin8(1,0,2):  -69 y(0,1,2) - v(1,0,2)p + v(1,0,2)n + u(1,0,2)p - u(1,0,2)n >= -69
MCLin9(1,0,2):  -69 y(0,1,2) + u(1,0,2)p - u(1,0,2)n <= 0
MCLin10(1,0,2):  74 y(0,1,2) - v(1,0,2)p + v(1,0,2)n + u(1,0,2)p - u(1,0,2)n <= 74
MCLinV(0,1,3):  - x(0,3) + v(0,1,3)p - v(0,1,3)n + x(1,3) = -7
MCLinV(1,0,3):  x(0,3) + v(1,0,3)p - v(1,0,3)n - x(1,3) = -1
MCLin1(0,1,3):  u(0,1,3)p - u(0,1,3)n >= 0
MCLin2(0,1,3):  71 y(1,0,3) + u(0,1,3)p - u(0,1,3)n >= 0
MCLin3(0,1,3):  -72 y(1,0,3) - v(0,1,3)p + v(0,1,3)n + u(0,1,3)p - u(0,1,3)n >= -72
MCLin4(0,1,3):  -72 y(1,0,3) + u(0,1,3)p - u(0,1,3)n <= 0
MCLin5(0,1,3):  71 y(1,0,3) - v(0,1,3)p + v(0,1,3)n + u(0,1,3)p - u(0,1,3)n <= 71
MCLin6(1,0,3):  u(1,0,3)p - u(1,0,3)n >= 0
MCLin7(1,0,3):  80 y(0,1,3) + u(1,0,3)p - u(1,0,3)n >= 0
MCLin8(1,0,3):  -63 y(0,1,3) - v(1,0,3)p + v(1,0,3)n + u(1,0,3)p - u(1,0,3)n >= -63
MCLin9(1,0,3):  -63 y(0,1,3) + u(1,0,3)p - u(1,0,3)n <= 0
MCLin10(1,0,3):  80 y(0,1,3) - v(1,0,3)p + v(1,0,3)n + u(1,0,3)p - u(1,0,3)n <= 80
MCLinV(0,2,0):  - x(0,0) + v(0,2,0)p - v(0,2,0)n + x(2,0) = -1
MCLinV(2,0,0):  x(0,0) + v(2,0,0)p - v(2,0,0)n - x(2,0) = -10
MCLin1(0,2,0):  u(0,2,0)p - u(0,2,0)n >= 0
MCLin2(0,2,0):  94 y(2,0,0) + u(0,2,0)p - u(0,2,0)n >= 0
MCLin3(0,2,0):  -50 y(2,0,0) - v(0,2,0)p + v(0,2,0)n + u(0,2,0)p - u(0,2,0)n >= -50
MCLin4(0,2,0):  -50 y(2,0,0) + u(0,2,0)p - u(0,2,0)n <= 0
MCLin5(0,2,0):  94 y(2,0,0) - v(0,2,0)p + v(0,2,0)n + u(0,2,0)p - u(0,2,0)n <= 94
MCLin6(2,0,0):  u(2,0,0)p - u(2,0,0)n >= 0
MCLin7(2,0,0):  61 y(0,2,0) + u(2,0,0)p - u(2,0,0)n >= 0
MCLin8(2,0,0):  -83 y(0,2,0) - v(2,0,0)p + v(2,0,0)n + u(2,0,0)p - u(2,0,0)n >= -83
MCLin9(2,0,0):  -83 y(0,2,0) + u(2,0,0)p - u(2,0,0)n <= 0
MCLin10(2,0,0):  61 y(0,2,0) - v(2,0,0)p + v(2,0,0)n + u(2,0,0)p - u(2,0,0)n <= 61
MCLinV(0,2,1):  - x(0,1) + v(0,2,1)p - v(0,2,1)n + x(2,1) = -7
MCLinV(2,0,1):  x(0,1) + v(2,0,1)p - v(2,0,1)n - x(2,1) = -7
MCLin1(0,2,1):  u(0,2,1)p - u(0,2,1)n >= 0
MCLin2(0,2,1):  76 y(2,0,1) + u(0,2,1)p - u(0,2,1)n >= 0
MCLin3(0,2,1):  -68 y(2,0,1) - v(0,2,1)p + v(0,2,1)n + u(0,2,1)p - u(0,2,1)n >= -68
MCLin4(0,2,1):  -68 y(2,0,1) + u(0,2,1)p - u(0,2,1)n <= 0
MCLin5(0,2,1):  76 y(2,0,1) - v(0,2,1)p + v(0,2,1)n + u(0,2,1)p - u(0,2,1)n <= 76
MCLin6(2,0,1):  u(2,0,1)p - u(2,0,1)n >= 0
MCLin7(2,0,1):  82 y(0,2,1) + u(2,0,1)p - u(2,0,1)n >= 0
MCLin8(2,0,1):  -62 y(0,2,1) - v(2,0,1)p + v(2,0,1)n + u(2,0,1)p - u(2,0,1)n >= -62
MCLin9(2,0,1):  -62 y(0,2,1) + u(2,0,1)p - u(2,0,1)n <= 0
MCLin10(2,0,1):  82 y(0,2,1) - v(2,0,1)p + v(2,0,1)n + u(2,0,1)p - u(2,0,1)n <= 82
MCLinV(0,2,2):  - x(0,2) + v(0,2,2)p - v(0,2,2)n + x(2,2) = -3
MCLinV(2,0,2):  x(0,2) + v(2,0,2)p - v(2,0,2)n - x(2,2) = -6
MCLin1(0,2,2):  u(0,2,2)p - u(0,2,2)n >= 0
MCLin2(0,2,2):  75 y(2,0,2) + u(0,2,2)p - u(0,2,2)n >= 0
MCLin3(0,2,2):  -69 y(2,0,2) - v(0,2,2)p + v(0,2,2)n + u(0,2,2)p - u(0,2,2)n >= -69
MCLin4(0,2,2):  -69 y(2,0,2) + u(0,2,2)p - u(0,2,2)n <= 0
MCLin5(0,2,2):  75 y(2,0,2) - v(0,2,2)p + v(0,2,2)n + u(0,2,2)p - u(0,2,2)n <= 75
MCLin6(2,0,2):  u(2,0,2)p - u(2,0,2)n >= 0
MCLin7(2,0,2):  78 y(0,2,2) + u(2,0,2)p - u(2,0,2)n >= 0
MCLin8(2,0,2):  -66 y(0,2,2) - v(2,0,2)p + v(2,0,2)n + u(2,0,2)p - u(2,0,2)n >= -66
MCLin9(2,0,2):  -66 y(0,2,2) + u(2,0,2)p - u(2,0,2)n <= 0
MCLin10(2,0,2):  78 y(0,2,2) - v(2,0,2)p + v(2,0,2)n + u(2,0,2)p - u(2,0,2)n <= 78
MCLinV(0,2,3):  - x(0,3) + v(0,2,3)p - v(0,2,3)n + x(2,3) = -9
MCLinV(2,0,3):  x(0,3) + v(2,0,3)p - v(2,0,3)n - x(2,3) = -1
MCLin1(0,2,3):  u(0,2,3)p - u(0,2,3)n >= 0
MCLin2(0,2,3):  73 y(2,0,3) + u(0,2,3)p - u(0,2,3)n >= 0
MCLin3(0,2,3):  -71 y(2,0,3) - v(0,2,3)p + v(0,2,3)n + u(0,2,3)p - u(0,2,3)n >= -71
MCLin4(0,2,3):  -71 y(2,0,3) + u(0,2,3)p - u(0,2,3)n <= 0
MCLin5(0,2,3):  73 y(2,0,3) - v(0,2,3)p + v(0,2,3)n + u(0,2,3)p - u(0,2,3)n <= 73
MCLin6(2,0,3):  u(2,0,3)p - u(2,0,3)n >= 0
MCLin7(2,0,3):  81 y(0,2,3) + u(2,0,3)p - u(2,0,3)n >= 0
MCLin8(2,0,3):  -63 y(0,2,3) - v(2,0,3)p + v(2,0,3)n + u(2,0,3)p - u(2,0,3)n >= -63
MCLin9(2,0,3):  -63 y(0,2,3) + u(2,0,3)p - u(2,0,3)n <= 0
MCLin10(2,0,3):  81 y(0,2,3) - v(2,0,3)p + v(2,0,3)n + u(2,0,3)p - u(2,0,3)n <= 81
MCLinV(0,3,0):  - x(0,0) + v(0,3,0)p - v(0,3,0)n + x(3,0) = -9
MCLinV(3,0,0):  x(0,0) + v(3,0,0)p - v(3,0,0)n - x(3,0) = -10
MCLin1(0,3,0):  u(0,3,0)p - u(0,3,0)n >= 0
MCLin2(0,3,0):  84 y(3,0,0) + u(0,3,0)p - u(0,3,0)n >= 0
MCLin3(0,3,0):  -51 y(3,0,0) - v(0,3,0)p + v(0,3,0)n + u(0,3,0)p - u(0,3,0)n >= -51
MCLin4(0,3,0):  -51 y(3,0,0) + u(0,3,0)p - u(0,3,0)n <= 0
MCLin5(0,3,0):  84 y(3,0,0) - v(0,3,0)p + v(0,3,0)n + u(0,3,0)p - u(0,3,0)n <= 84
MCLin6(3,0,0):  u(3,0,0)p - u(3,0,0)n >= 0
MCLin7(3,0,0):  70 y(0,3,0) + u(3,0,0)p - u(3,0,0)n >= 0
MCLin8(3,0,0):  -65 y(0,3,0) - v(3,0,0)p + v(3,0,0)n + u(3,0,0)p - u(3,0,0)n >= -65
MCLin9(3,0,0):  -65 y(0,3,0) + u(3,0,0)p - u(3,0,0)n <= 0
MCLin10(3,0,0):  70 y(0,3,0) - v(3,0,0)p + v(3,0,0)n + u(3,0,0)p - u(3,0,0)n <= 70
MCLinV(0,3,1):  - x(0,1) + v(0,3,1)p - v(0,3,1)n + x(3,1) = -7
MCLinV(3,0,1):  x(0,1) + v(3,0,1)p - v(3,0,1)n - x(3,1) = -7
MCLin1(0,3,1):  u(0,3,1)p - u(0,3,1)n >= 0
MCLin2(0,3,1):  55 y(3,0,1) + u(0,3,1)p - u(0,3,1)n >= 0
MCLin3(0,3,1):  -80 y(3,0,1) - v(0,3,1)p + v(0,3,1)n + u(0,3,1)p - u(0,3,1)n >= -80
MCLin4(0,3,1):  -80 y(3,0,1) + u(0,3,1)p - u(0,3,1)n <= 0
MCLin5(0,3,1):  55 y(3,0,1) - v(0,3,1)p + v(0,3,1)n + u(0,3,1)p - u(0,3,1)n <= 55
MCLin6(3,0,1):  u(3,0,1)p - u(3,0,1)n >= 0
MCLin7(3,0,1):  94 y(0,3,1) + u(3,0,1)p - u(3,0,1)n >= 0
MCLin8(3,0,1):  -41 y(0,3,1) - v(3,0,1)p + v(3,0,1)n + u(3,0,1)p - u(3,0,1)n >= -41
MCLin9(3,0,1):  -41 y(0,3,1) + u(3,0,1)p - u(3,0,1)n <= 0
MCLin10(3,0,1):  94 y(0,3,1) - v(3,0,1)p + v(3,0,1)n + u(3,0,1)p - u(3,0,1)n <= 94
MCLinV(0,3,2):  - x(0,2) + v(0,3,2)p - v(0,3,2)n + x(3,2) = -10
MCLinV(3,0,2):  x(0,2) + v(3,0,2)p - v(3,0,2)n - x(3,2) = -6
MCLin1(0,3,2):  u(0,3,2)p - u(0,3,2)n >= 0
MCLin2(0,3,2):  83 y(3,0,2) + u(0,3,2)p - u(0,3,2)n >= 0
MCLin3(0,3,2):  -52 y(3,0,2) - v(0,3,2)p + v(0,3,2)n + u(0,3,2)p - u(0,3,2)n >= -52
MCLin4(0,3,2):  -52 y(3,0,2) + u(0,3,2)p - u(0,3,2)n <= 0
MCLin5(0,3,2):  83 y(3,0,2) - v(0,3,2)p + v(0,3,2)n + u(0,3,2)p - u(0,3,2)n <= 83
MCLin6(3,0,2):  u(3,0,2)p - u(3,0,2)n >= 0
MCLin7(3,0,2):  68 y(0,3,2) + u(3,0,2)p - u(3,0,2)n >= 0
MCLin8(3,0,2):  -67 y(0,3,2) - v(3,0,2)p + v(3,0,2)n + u(3,0,2)p - u(3,0,2)n >= -67
MCLin9(3,0,2):  -67 y(0,3,2) + u(3,0,2)p - u(3,0,2)n <= 0
MCLin10(3,0,2):  68 y(0,3,2) - v(3,0,2)p + v(3,0,2)n + u(3,0,2)p - u(3,0,2)n <= 68
MCLinV(0,3,3):  - x(0,3) + v(0,3,3)p - v(0,3,3)n + x(3,3) = -3
MCLinV(3,0,3):  x(0,3) + v(3,0,3)p - v(3,0,3)n - x(3,3) = -1
MCLin1(0,3,3):  u(0,3,3)p - u(0,3,3)n >= 0
MCLin2(0,3,3):  65 y(3,0,3) + u(0,3,3)p - u(0,3,3)n >= 0
MCLin3(0,3,3):  -70 y(3,0,3) - v(0,3,3)p + v(0,3,3)n + u(0,3,3)p - u(0,3,3)n >= -70
MCLin4(0,3,3):  -70 y(3,0,3) + u(0,3,3)p - u(0,3,3)n <= 0
MCLin5(0,3,3):  65 y(3,0,3) - v(0,3,3)p + v(0,3,3)n + u(0,3,3)p - u(0,3,3)n <= 65
MCLin6(3,0,3):  u(3,0,3)p - u(3,0,3)n >= 0
MCLin7(3,0,3):  74 y(0,3,3) + u(3,0,3)p - u(3,0,3)n >= 0
MCLin8(3,0,3):  -61 y(0,3,3) - v(3,0,3)p + v(3,0,3)n + u(3,0,3)p - u(3,0,3)n >= -61
MCLin9(3,0,3):  -61 y(0,3,3) + u(3,0,3)p - u(3,0,3)n <= 0
MCLin10(3,0,3):  74 y(0,3,3) - v(3,0,3)p + v(3,0,3)n + u(3,0,3)p - u(3,0,3)n <= 74
MCLinV(1,2,0):  - x(1,0) + v(1,2,0)p - v(1,2,0)n + x(2,0) = -1
MCLinV(2,1,0):  x(1,0) + v(2,1,0)p - v(2,1,0)n - x(2,0) = -1
MCLin1(1,2,0):  u(1,2,0)p - u(1,2,0)n >= 0
MCLin2(1,2,0):  94 y(2,1,0) + u(1,2,0)p - u(1,2,0)n >= 0
MCLin3(1,2,0):  -53 y(2,1,0) - v(1,2,0)p + v(1,2,0)n + u(1,2,0)p - u(1,2,0)n >= -53
MCLin4(1,2,0):  -53 y(2,1,0) + u(1,2,0)p - u(1,2,0)n <= 0
MCLin5(1,2,0):  94 y(2,1,0) - v(1,2,0)p + v(1,2,0)n + u(1,2,0)p - u(1,2,0)n <= 94
MCLin6(2,1,0):  u(2,1,0)p - u(2,1,0)n >= 0
MCLin7(2,1,0):  55 y(1,2,0) + u(2,1,0)p - u(2,1,0)n >= 0
MCLin8(2,1,0):  -92 y(1,2,0) - v(2,1,0)p + v(2,1,0)n + u(2,1,0)p - u(2,1,0)n >= -92
MCLin9(2,1,0):  -92 y(1,2,0) + u(2,1,0)p - u(2,1,0)n <= 0
MCLin10(2,1,0):  55 y(1,2,0) - v(2,1,0)p + v(2,1,0)n + u(2,1,0)p - u(2,1,0)n <= 55
MCLinV(1,2,1):  - x(1,1) + v(1,2,1)p - v(1,2,1)n + x(2,1) = -7
MCLinV(2,1,1):  x(1,1) + v(2,1,1)p - v(2,1,1)n - x(2,1) = -5
MCLin1(1,2,1):  u(1,2,1)p - u(1,2,1)n >= 0
MCLin2(1,2,1):  85 y(2,1,1) + u(1,2,1)p - u(1,2,1)n >= 0
MCLin3(1,2,1):  -62 y(2,1,1) - v(1,2,1)p + v(1,2,1)n + u(1,2,1)p - u(1,2,1)n >= -62
MCLin4(1,2,1):  -62 y(2,1,1) + u(1,2,1)p - u(1,2,1)n <= 0
MCLin5(1,2,1):  85 y(2,1,1) - v(1,2,1)p + v(1,2,1)n + u(1,2,1)p - u(1,2,1)n <= 85
MCLin6(2,1,1):  u(2,1,1)p - u(2,1,1)n >= 0
MCLin7(2,1,1):  74 y(1,2,1) + u(2,1,1)p - u(2,1,1)n >= 0
MCLin8(2,1,1):  -73 y(1,2,1) - v(2,1,1)p + v(2,1,1)n + u(2,1,1)p - u(2,1,1)n >= -73
MCLin9(2,1,1):  -73 y(1,2,1) + u(2,1,1)p - u(2,1,1)n <= 0
MCLin10(2,1,1):  74 y(1,2,1) - v(2,1,1)p + v(2,1,1)n + u(2,1,1)p - u(2,1,1)n <= 74
MCLinV(1,2,2):  - x(1,2) + v(1,2,2)p - v(1,2,2)n + x(2,2) = -3
MCLinV(2,1,2):  x(1,2) + v(2,1,2)p - v(2,1,2)n - x(2,2) = -8
MCLin1(1,2,2):  u(1,2,2)p - u(1,2,2)n >= 0
MCLin2(1,2,2):  73 y(2,1,2) + u(1,2,2)p - u(1,2,2)n >= 0
MCLin3(1,2,2):  -74 y(2,1,2) - v(1,2,2)p + v(1,2,2)n + u(1,2,2)p - u(1,2,2)n >= -74
MCLin4(1,2,2):  -74 y(2,1,2) + u(1,2,2)p - u(1,2,2)n <= 0
MCLin5(1,2,2):  73 y(2,1,2) - v(1,2,2)p + v(1,2,2)n + u(1,2,2)p - u(1,2,2)n <= 73
MCLin6(2,1,2):  u(2,1,2)p - u(2,1,2)n >= 0
MCLin7(2,1,2):  85 y(1,2,2) + u(2,1,2)p - u(2,1,2)n >= 0
MCLin8(2,1,2):  -62 y(1,2,2) - v(2,1,2)p + v(2,1,2)n + u(2,1,2)p - u(2,1,2)n >= -62
MCLin9(2,1,2):  -62 y(1,2,2) + u(2,1,2)p - u(2,1,2)n <= 0
MCLin10(2,1,2):  85 y(1,2,2) - v(2,1,2)p + v(2,1,2)n + u(2,1,2)p - u(2,1,2)n <= 85
MCLinV(1,2,3):  - x(1,3) + v(1,2,3)p - v(1,2,3)n + x(2,3) = -9
MCLinV(2,1,3):  x(1,3) + v(2,1,3)p - v(2,1,3)n - x(2,3) = -7
MCLin1(1,2,3):  u(1,2,3)p - u(1,2,3)n >= 0
MCLin2(1,2,3):  82 y(2,1,3) + u(1,2,3)p - u(1,2,3)n >= 0
MCLin3(1,2,3):  -65 y(2,1,3) - v(1,2,3)p + v(1,2,3)n + u(1,2,3)p - u(1,2,3)n >= -65
MCLin4(1,2,3):  -65 y(2,1,3) + u(1,2,3)p - u(1,2,3)n <= 0
MCLin5(1,2,3):  82 y(2,1,3) - v(1,2,3)p + v(1,2,3)n + u(1,2,3)p - u(1,2,3)n <= 82
MCLin6(2,1,3):  u(2,1,3)p - u(2,1,3)n >= 0
MCLin7(2,1,3):  81 y(1,2,3) + u(2,1,3)p - u(2,1,3)n >= 0
MCLin8(2,1,3):  -66 y(1,2,3) - v(2,1,3)p + v(2,1,3)n + u(2,1,3)p - u(2,1,3)n >= -66
MCLin9(2,1,3):  -66 y(1,2,3) + u(2,1,3)p - u(2,1,3)n <= 0
MCLin10(2,1,3):  81 y(1,2,3) - v(2,1,3)p + v(2,1,3)n + u(2,1,3)p - u(2,1,3)n <= 81
MCLinV(1,3,0):  - x(1,0) + v(1,3,0)p - v(1,3,0)n + x(3,0) = -9
MCLinV(3,1,0):  x(1,0) + v(3,1,0)p - v(3,1,0)n - x(3,0) = -1
MCLin1(1,3,0):  u(1,3,0)p - u(1,3,0)n >= 0
MCLin2(1,3,0):  84 y(3,1,0) + u(1,3,0)p - u(1,3,0)n >= 0
MCLin3(1,3,0):  -54 y(3,1,0) - v(1,3,0)p + v(1,3,0)n + u(1,3,0)p - u(1,3,0)n >= -54
MCLin4(1,3,0):  -54 y(3,1,0) + u(1,3,0)p - u(1,3,0)n <= 0
MCLin5(1,3,0):  84 y(3,1,0) - v(1,3,0)p + v(1,3,0)n + u(1,3,0)p - u(1,3,0)n <= 84
MCLin6(3,1,0):  u(3,1,0)p - u(3,1,0)n >= 0
MCLin7(3,1,0):  64 y(1,3,0) + u(3,1,0)p - u(3,1,0)n >= 0
MCLin8(3,1,0):  -74 y(1,3,0) - v(3,1,0)p + v(3,1,0)n + u(3,1,0)p - u(3,1,0)n >= -74
MCLin9(3,1,0):  -74 y(1,3,0) + u(3,1,0)p - u(3,1,0)n <= 0
MCLin10(3,1,0):  64 y(1,3,0) - v(3,1,0)p + v(3,1,0)n + u(3,1,0)p - u(3,1,0)n <= 64
MCLinV(1,3,1):  - x(1,1) + v(1,3,1)p - v(1,3,1)n + x(3,1) = -7
MCLinV(3,1,1):  x(1,1) + v(3,1,1)p - v(3,1,1)n - x(3,1) = -5
MCLin1(1,3,1):  u(1,3,1)p - u(1,3,1)n >= 0
MCLin2(1,3,1):  64 y(3,1,1) + u(1,3,1)p - u(1,3,1)n >= 0
MCLin3(1,3,1):  -74 y(3,1,1) - v(1,3,1)p + v(1,3,1)n + u(1,3,1)p - u(1,3,1)n >= -74
MCLin4(1,3,1):  -74 y(3,1,1) + u(1,3,1)p - u(1,3,1)n <= 0
MCLin5(1,3,1):  64 y(3,1,1) - v(1,3,1)p + v(1,3,1)n + u(1,3,1)p - u(1,3,1)n <= 64
MCLin6(3,1,1):  u(3,1,1)p - u(3,1,1)n >= 0
MCLin7(3,1,1):  86 y(1,3,1) + u(3,1,1)p - u(3,1,1)n >= 0
MCLin8(3,1,1):  -52 y(1,3,1) - v(3,1,1)p + v(3,1,1)n + u(3,1,1)p - u(3,1,1)n >= -52
MCLin9(3,1,1):  -52 y(1,3,1) + u(3,1,1)p - u(3,1,1)n <= 0
MCLin10(3,1,1):  86 y(1,3,1) - v(3,1,1)p + v(3,1,1)n + u(3,1,1)p - u(3,1,1)n <= 86
MCLinV(1,3,2):  - x(1,2) + v(1,3,2)p - v(1,3,2)n + x(3,2) = -10
MCLinV(3,1,2):  x(1,2) + v(3,1,2)p - v(3,1,2)n - x(3,2) = -8
MCLin1(1,3,2):  u(1,3,2)p - u(1,3,2)n >= 0
MCLin2(1,3,2):  81 y(3,1,2) + u(1,3,2)p - u(1,3,2)n >= 0
MCLin3(1,3,2):  -57 y(3,1,2) - v(1,3,2)p + v(1,3,2)n + u(1,3,2)p - u(1,3,2)n >= -57
MCLin4(1,3,2):  -57 y(3,1,2) + u(1,3,2)p - u(1,3,2)n <= 0
MCLin5(1,3,2):  81 y(3,1,2) - v(1,3,2)p + v(1,3,2)n + u(1,3,2)p - u(1,3,2)n <= 81
MCLin6(3,1,2):  u(3,1,2)p - u(3,1,2)n >= 0
MCLin7(3,1,2):  75 y(1,3,2) + u(3,1,2)p - u(3,1,2)n >= 0
MCLin8(3,1,2):  -63 y(1,3,2) - v(3,1,2)p + v(3,1,2)n + u(3,1,2)p - u(3,1,2)n >= -63
MCLin9(3,1,2):  -63 y(1,3,2) + u(3,1,2)p - u(3,1,2)n <= 0
MCLin10(3,1,2):  75 y(1,3,2) - v(3,1,2)p + v(3,1,2)n + u(3,1,2)p - u(3,1,2)n <= 75
MCLinV(1,3,3):  - x(1,3) + v(1,3,3)p - v(1,3,3)n + x(3,3) = -3
MCLinV(3,1,3):  x(1,3) + v(3,1,3)p - v(3,1,3)n - x(3,3) = -7
MCLin1(1,3,3):  u(1,3,3)p - u(1,3,3)n >= 0
MCLin2(1,3,3):  74 y(3,1,3) + u(1,3,3)p - u(1,3,3)n >= 0
MCLin3(1,3,3):  -64 y(3,1,3) - v(1,3,3)p + v(1,3,3)n + u(1,3,3)p - u(1,3,3)n >= -64
MCLin4(1,3,3):  -64 y(3,1,3) + u(1,3,3)p - u(1,3,3)n <= 0
MCLin5(1,3,3):  74 y(3,1,3) - v(1,3,3)p + v(1,3,3)n + u(1,3,3)p - u(1,3,3)n <= 74
MCLin6(3,1,3):  u(3,1,3)p - u(3,1,3)n >= 0
MCLin7(3,1,3):  74 y(1,3,3) + u(3,1,3)p - u(3,1,3)n >= 0
MCLin8(3,1,3):  -64 y(1,3,3) - v(3,1,3)p + v(3,1,3)n + u(3,1,3)p - u(3,1,3)n >= -64
MCLin9(3,1,3):  -64 y(1,3,3) + u(3,1,3)p - u(3,1,3)n <= 0
MCLin10(3,1,3):  74 y(1,3,3) - v(3,1,3)p + v(3,1,3)n + u(3,1,3)p - u(3,1,3)n <= 74
MCLinV(2,3,0):  - x(2,0) + v(2,3,0)p - v(2,3,0)n + x(3,0) = -9
MCLinV(3,2,0):  x(2,0) + v(3,2,0)p - v(3,2,0)n - x(3,0) = -1
MCLin1(2,3,0):  u(2,3,0)p - u(2,3,0)n >= 0
MCLin2(2,3,0):  65 y(3,2,0) + u(2,3,0)p - u(2,3,0)n >= 0
MCLin3(2,3,0):  -74 y(3,2,0) - v(2,3,0)p + v(2,3,0)n + u(2,3,0)p - u(2,3,0)n >= -74
MCLin4(2,3,0):  -74 y(3,2,0) + u(2,3,0)p - u(2,3,0)n <= 0
MCLin5(2,3,0):  65 y(3,2,0) - v(2,3,0)p + v(2,3,0)n + u(2,3,0)p - u(2,3,0)n <= 65
MCLin6(3,2,0):  u(3,2,0)p - u(3,2,0)n >= 0
MCLin7(3,2,0):  84 y(2,3,0) + u(3,2,0)p - u(3,2,0)n >= 0
MCLin8(3,2,0):  -55 y(2,3,0) - v(3,2,0)p + v(3,2,0)n + u(3,2,0)p - u(3,2,0)n >= -55
MCLin9(3,2,0):  -55 y(2,3,0) + u(3,2,0)p - u(3,2,0)n <= 0
MCLin10(3,2,0):  84 y(2,3,0) - v(3,2,0)p + v(3,2,0)n + u(3,2,0)p - u(3,2,0)n <= 84
MCLinV(2,3,1):  - x(2,1) + v(2,3,1)p - v(2,3,1)n + x(3,1) = -7
MCLinV(3,2,1):  x(2,1) + v(3,2,1)p - v(3,2,1)n - x(3,1) = -7
MCLin1(2,3,1):  u(2,3,1)p - u(2,3,1)n >= 0
MCLin2(2,3,1):  60 y(3,2,1) + u(2,3,1)p - u(2,3,1)n >= 0
MCLin3(2,3,1):  -79 y(3,2,1) - v(2,3,1)p + v(2,3,1)n + u(2,3,1)p - u(2,3,1)n >= -79
MCLin4(2,3,1):  -79 y(3,2,1) + u(2,3,1)p - u(2,3,1)n <= 0
MCLin5(2,3,1):  60 y(3,2,1) - v(2,3,1)p + v(2,3,1)n + u(2,3,1)p - u(2,3,1)n <= 60
MCLin6(3,2,1):  u(3,2,1)p - u(3,2,1)n >= 0
MCLin7(3,2,1):  93 y(2,3,1) + u(3,2,1)p - u(3,2,1)n >= 0
MCLin8(3,2,1):  -46 y(2,3,1) - v(3,2,1)p + v(3,2,1)n + u(3,2,1)p - u(3,2,1)n >= -46
MCLin9(3,2,1):  -46 y(2,3,1) + u(3,2,1)p - u(3,2,1)n <= 0
MCLin10(3,2,1):  93 y(2,3,1) - v(3,2,1)p + v(3,2,1)n + u(3,2,1)p - u(3,2,1)n <= 93
MCLinV(2,3,2):  - x(2,2) + v(2,3,2)p - v(2,3,2)n + x(3,2) = -10
MCLinV(3,2,2):  x(2,2) + v(3,2,2)p - v(3,2,2)n - x(3,2) = -3
MCLin1(2,3,2):  u(2,3,2)p - u(2,3,2)n >= 0
MCLin2(2,3,2):  85 y(3,2,2) + u(2,3,2)p - u(2,3,2)n >= 0
MCLin3(2,3,2):  -54 y(3,2,2) - v(2,3,2)p + v(2,3,2)n + u(2,3,2)p - u(2,3,2)n >= -54
MCLin4(2,3,2):  -54 y(3,2,2) + u(2,3,2)p - u(2,3,2)n <= 0
MCLin5(2,3,2):  85 y(3,2,2) - v(2,3,2)p + v(2,3,2)n + u(2,3,2)p - u(2,3,2)n <= 85
MCLin6(3,2,2):  u(3,2,2)p - u(3,2,2)n >= 0
MCLin7(3,2,2):  67 y(2,3,2) + u(3,2,2)p - u(3,2,2)n >= 0
MCLin8(3,2,2):  -72 y(2,3,2) - v(3,2,2)p + v(3,2,2)n + u(3,2,2)p - u(3,2,2)n >= -72
MCLin9(3,2,2):  -72 y(2,3,2) + u(3,2,2)p - u(3,2,2)n <= 0
MCLin10(3,2,2):  67 y(2,3,2) - v(3,2,2)p + v(3,2,2)n + u(3,2,2)p - u(3,2,2)n <= 67
MCLinV(2,3,3):  - x(2,3) + v(2,3,3)p - v(2,3,3)n + x(3,3) = -3
MCLinV(3,2,3):  x(2,3) + v(3,2,3)p - v(3,2,3)n - x(3,3) = -9
MCLin1(2,3,3):  u(2,3,3)p - u(2,3,3)n >= 0
MCLin2(2,3,3):  75 y(3,2,3) + u(2,3,3)p - u(2,3,3)n >= 0
MCLin3(2,3,3):  -64 y(3,2,3) - v(2,3,3)p + v(2,3,3)n + u(2,3,3)p - u(2,3,3)n >= -64
MCLin4(2,3,3):  -64 y(3,2,3) + u(2,3,3)p - u(2,3,3)n <= 0
MCLin5(2,3,3):  75 y(3,2,3) - v(2,3,3)p + v(2,3,3)n + u(2,3,3)p - u(2,3,3)n <= 75
MCLin6(3,2,3):  u(3,2,3)p - u(3,2,3)n >= 0
MCLin7(3,2,3):  76 y(2,3,3) + u(3,2,3)p - u(3,2,3)n >= 0
MCLin8(3,2,3):  -63 y(2,3,3) - v(3,2,3)p + v(3,2,3)n + u(3,2,3)p - u(3,2,3)n >= -63
MCLin9(3,2,3):  -63 y(2,3,3) + u(3,2,3)p - u(3,2,3)n <= 0
MCLin10(3,2,3):  76 y(2,3,3) - v(3,2,3)p + v(3,2,3)n + u(3,2,3)p - u(3,2,3)n <= 76
makespan(0):  C - x(0,1) >= 7
makespan(1):  C - x(1,2) >= 8
makespan(2):  C - x(2,0) >= 1
makespan(3):  C - x(3,2) >= 10
cut_clique_1(013,0):  0.96278 x(0,0) + 0.07113 x(1,0) + 0.05957 x(3,0) >= 1
cut_clique_1(0123,0):  0.96278 x(0,0) + 0.07113 x(1,0) + 0.00557 x(2,0) + 0.05524 x(3,0) >= 1
cut_clique_1(012,0):  0.64909 x(0,0) + 0.69194 x(1,0) + 0.05170 x(2,0) >= 1
cut_clique_1(01,0):  x(0,0) + x(1,0) >= 1
cut_clique_1(123,1):  0.07251 x(1,1) + 0.03398 x(2,1) + 0.82425 x(3,1) >= 1
cut_clique_1(12,1):  0.11823 x(1,1) + 0.00430 x(2,1) >= 1
cut_clique_1(02,2):  0.05352 x(0,2) + 0.04406 x(2,2) >= 1
cut_clique_1(12,3):  0.98236 x(1,3) + x(2,3) >= 1
cut_clique_1(012,3):  0.00179 x(0,3) + 0.37467 x(1,3) + x(2,3) >= 1
cut_clique_1(123,3):  0.47921 x(1,3) + 0.27914 x(2,3) + 0.00447 x(3,3) >= 1
cut_clique_1(23,3):  0.87957 x(2,3) + 0.12357 x(3,3) >= 1
cut_clique_1(023,3):  0.08474 x(0,3) + x(2,3) + 0.01628 x(3,3) >= 1
cut_clique_2(012,0):  0.99259 x(0,0) + 0.37071 x(1,0) + 0.01798 x(2,0) >= 1
cut_clique_2(12,1):  0.01427 x(1,1) + 0.07059 x(2,1) >= 1
cut_clique_2(01,2):  0.04707 x(0,2) + 0.02964 x(1,2) >= 1
cut_clique_2(23,3):  0.62633 x(2,3) + 0.12600 x(3,3) >= 1
cut_clique_2(12,3):  0.37791 x(1,3) + 0.97000 x(2,3) >= 1
cut_clique_2(123,3):  0.10125 x(1,3) + x(2,3) + 0.08027 x(3,3) >= 1
cut_clique_2(012,3):  0.01956 x(0,3) + 0.28545 x(1,3) + 0.67553 x(2,3) >= 1
cut_clique_2(0123,3):  0.00774 x(0,3) + 0.13615 x(1,3) + 0.26695 x(2,3) + 0.02445 x(3,3) >= 1
cut_clique_3(013,0):  0.41586 x(0,0) + 0.24970 x(1,0) + 0.06362 x(3,0) >= 1
cut_clique_3(01,0):  x(0,0) + x(1,0) >= 1
cut_clique_3(012,0):  x(0,0) + 0.21076 x(1,0) + 0.00298 x(2,0) >= 1
cut_clique_3(12,3):  0.16059 x(1,3) + 0.96943 x(2,3) >= 1
cut_clique_3(23,3):  0.59029 x(2,3) + 0.12677 x(3,3) >= 1
cut_clique_3(023,3):  0.00687 x(0,3) + 0.55570 x(2,3) + 0.11315 x(3,3) >= 1
cut_clique_3(123,3):  0.03188 x(1,3) + 0.30016 x(2,3) + 0.10985 x(3,3) >= 1
cut_clique_4(013,0):  0.02799 x(0,0) + 0.10988 x(1,0) + 0.09465 x(3,0) >= 1
cut_clique_4(23,3):  0.03204 x(2,3) + 0.13880 x(3,3) >= 1
cut_clique_4(123,3):  0.00547 x(1,3) + 0.17718 x(2,3) + 0.12761 x(3,3) >= 1
cut_clique_5(013,0):  0.02701 x(0,0) + 0.14459 x(1,0) + 0.08966 x(3,0) >= 1
cut_clique_5(012,0):  0.80470 x(0,0) + 0.14933 x(1,0) + 0.01131 x(2,0) >= 1
cut_clique_5(01,0):  x(0,0) + 0.46407 x(1,0) >= 1
cut_clique_5(12,3):  0.21324 x(1,3) + 0.27109 x(2,3) >= 1
cut_clique_5(012,3):  0.03074 x(0,3) + 0.09541 x(1,3) + 0.21717 x(2,3) >= 1
cut_clique_5(123,3):  0.14574 x(1,3) + 0.24095 x(2,3) + 0.02224 x(3,3) >= 1
cut_clique_6(013,0):  0.03419 x(0,0) + 0.02939 x(1,0) + 0.09357 x(3,0) >= 1
cut_clique_6(01,0):  x(0,0) + 0.33395 x(1,0) >= 1
cut_clique_6(23,3):  0.20527 x(2,3) + 0.11533 x(3,3) >= 1
cut_clique_6(12,3):  0.17673 x(1,3) + 0.25726 x(2,3) >= 1
cut_clique_6(123,3):  0.12173 x(1,3) + 0.22242 x(2,3) + 0.03751 x(3,3) >= 1
cut_clique_7(123,3):  0.13760 x(1,3) + 0.07837 x(2,3) + 0.01586 x(3,3) >= 1
cut_clique_7(12,3):  0.13399 x(1,3) + 0.43775 x(2,3) >= 1
cut_clique_7(012,3):  0.04463 x(0,3) + 0.05992 x(1,3) + 0.04762 x(2,3) >= 1
cut_clique_7(0123,3):  0.01938 x(0,3) + 0.13690 x(1,3) + 0.07640 x(2,3) + 0.00113 x(3,3) >= 1
cut_clique_8(12,3):  0.11424 x(1,3) + 0.33228 x(2,3) >= 1
cut_clique_8(23,3):  0.16600 x(2,3) + 0.12046 x(3,3) >= 1
cut_clique_9(12,3):  0.12505 x(1,3) + 0.26194 x(2,3) >= 1
cut_clique_9(23,3):  0.14509 x(2,3) + 0.12221 x(3,3) >= 1
cut_clique_9(023,3):  0.01155 x(0,3) + 0.06364 x(2,3) + 0.10319 x(3,3) >= 1
cut_clique_10(13,2):  0.01170 x(1,2) + 0.04176 x(3,2) >= 1
cut_clique_10(23,3):  0.04954 x(2,3) + 0.12593 x(3,3) >= 1
cut_clique_10(13,3):  0.01477 x(1,3) + 0.13038 x(3,3) >= 1
cut_clique_10(12,3):  0.14685 x(1,3) + 0.11389 x(2,3) >= 1
cut_clique_10(123,3):  0.10356 x(1,3) + 0.18925 x(2,3) + 0.01602 x(3,3) >= 1
cut_clique_11(12,3):  0.11117 x(1,3) + 0.13682 x(2,3) >= 1
cut_clique_11(123,3):  0.11228 x(1,3) + 0.13742 x(2,3) + 0.00047 x(3,3) >= 1
cut_clique_11(23,3):  0.03677 x(2,3) + 0.13023 x(3,3) >= 1
cut_clique_11(13,3):  0.02133 x(1,3) + 0.12440 x(3,3) >= 1
cut_clique_12(23,3):  0.00811 x(2,3) + 0.13960 x(3,3) >= 1
cut_clique_12(12,3):  0.11602 x(1,3) + 0.11961 x(2,3) >= 1
cut_clique_12(13,3):  0.02320 x(1,3) + 0.12278 x(3,3) >= 1
cut_clique_13(013,0):  0.03431 x(0,0) + 0.04878 x(1,0) + 0.09033 x(3,0) >= 1
cut_clique_13(23,3):  0.02327 x(2,3) + 0.13352 x(3,3) >= 1
cut_clique_13(13,3):  0.00847 x(1,3) + 0.13516 x(3,3) >= 1
cut_clique_14(13,2):  0.00688 x(1,2) + 0.04590 x(3,2) >= 1
cut_clique_14(23,3):  0.05496 x(2,3) + 0.11246 x(3,3) >= 1
cut_clique_15(013,0):  0.03536 x(0,0) + 0.01252 x(1,0) + 0.09033 x(3,0) >= 1
cut_clique_16(013,0):  0.02437 x(0,0) + 0.07600 x(1,0) + 0.08941 x(3,0) >= 1
cut_clique_16(13,3):  0.00683 x(1,3) + 0.13601 x(3,3) >= 1
cut_clique_16(23,3):  0.00429 x(2,3) + 0.13791 x(3,3) >= 1
Bounds
 0 <= C <= 94
 0 <= x(0,0) <= 70
 0 <= y(0,1,0) <= 1
 0 <= y(1,0,0) <= 1
 0 <= v(0,1,0)p <= 69
 0 <= v(0,1,0)n <= 74
 0 <= v(1,0,0)p <= 63
 0 <= v(1,0,0)n <= 80
 0 <= u(0,1,0)p <= 940
 0 <= u(0,1,0)n <= 940
 0 <= u(1,0,0)p <= 940
 0 <= u(1,0,0)n <= 940
 0 <= y(0,2,0) <= 1
 0 <= y(2,0,0) <= 1
 0 <= v(0,2,0)p <= 50
 0 <= v(0,2,0)n <= 94
 0 <= v(2,0,0)p <= 83
 0 <= v(2,0,0)n <= 61
 0 <= u(0,2,0)p <= 940
 0 <= u(0,2,0)n <= 940
 0 <= u(2,0,0)p <= 940
 0 <= u(2,0,0)n <= 940
 0 <= y(0,3,0) <= 1
 0 <= y(3,0,0) <= 1
 0 <= v(0,3,0)p <= 51
 0 <= v(0,3,0)n <= 84
 0 <= v(3,0,0)p <= 65
 0 <= v(3,0,0)n <= 70
 0 <= u(0,3,0)p <= 940
 0 <= u(0,3,0)n <= 940
 0 <= u(3,0,0)p <= 940
 0 <= u(3,0,0)n <= 940
 0 <= x(1,0) <= 73
 0 <= y(1,2,0) <= 1
 0 <= y(2,1,0) <= 1
 0 <= v(1,2,0)p <= 53
 0 <= v(1,2,0)n <= 94
 0 <= v(2,1,0)p <= 92
 0 <= v(2,1,0)n <= 55
 0 <= u(1,2,0)p <= 940
 0 <= u(1,2,0)n <= 940
 0 <= u(2,1,0)p <= 940
 0 <= u(2,1,0)n <= 940
 0 <= y(1,3,0) <= 1
 0 <= y(3,1,0) <= 1
 0 <= v(1,3,0)p <= 54
 0 <= v(1,3,0)n <= 84
 0 <= v(3,1,0)p <= 74
 0 <= v(3,1,0)n <= 64
 0 <= u(1,3,0)p <= 940
 0 <= u(1,3,0)n <= 940
 0 <= u(3,1,0)p <= 940
 0 <= u(3,1,0)n <= 940
 19 <= x(2,0) <= 93
 0 <= y(2,3,0) <= 1
 0 <= y(3,2,0) <= 1
 0 <= v(2,3,0)p <= 74
 0 <= v(2,3,0)n <= 65
 0 <= v(3,2,0)p <= 55
 0 <= v(3,2,0)n <= 84
 0 <= u(2,3,0)p <= 940
 0 <= u(2,3,0)n <= 940
 0 <= u(3,2,0)p <= 940
 0 <= u(3,2,0)n <= 940
 10 <= x(3,0) <= 75
 17 <= x(0,1) <= 87
 0 <= y(0,1,1) <= 1
 0 <= y(1,0,1) <= 1
 0 <= v(0,1,1)p <= 74
 0 <= v(0,1,1)n <= 69
 0 <= v(1,0,1)p <= 57
 0 <= v(1,0,1)n <= 86
 0 <= u(0,1,1)p <= 940
 0 <= u(0,1,1)n <= 940
 0 <= u(1,0,1)p <= 940
 0 <= u(1,0,1)n <= 940
 0 <= y(0,2,1) <= 1
 0 <= y(2,0,1) <= 1
 0 <= v(0,2,1)p <= 68
 0 <= v(0,2,1)n <= 76
 0 <= v(2,0,1)p <= 62
 0 <= v(2,0,1)n <= 82
 0 <= u(0,2,1)p <= 940
 0 <= u(0,2,1)n <= 940
 0 <= u(2,0,1)p <= 940
 0 <= u(2,0,1)n <= 940
 0 <= y(0,3,1) <= 1
 0 <= y(3,0,1) <= 1
 0 <= v(0,3,1)p <= 80
 0 <= v(0,3,1)n <= 55
 0 <= v(3,0,1)p <= 41
 0 <= v(3,0,1)n <= 94
 0 <= u(0,3,1)p <= 940
 0 <= u(0,3,1)n <= 940
 0 <= u(3,0,1)p <= 940
 0 <= u(3,0,1)n <= 940
 8 <= x(1,1) <= 81
 0 <= y(1,2,1) <= 1
 0 <= y(2,1,1) <= 1
 0 <= v(1,2,1)p <= 62
 0 <= v(1,2,1)n <= 85
 0 <= v(2,1,1)p <= 73
 0 <= v(2,1,1)n <= 74
 0 <= u(1,2,1)p <= 940
 0 <= u(1,2,1)n <= 940
 0 <= u(2,1,1)p <= 940
 0 <= u(2,1,1)n <= 940
 0 <= y(1,3,1) <= 1
 0 <= y(3,1,1) <= 1
 0 <= v(1,3,1)p <= 74
 0 <= v(1,3,1)n <= 64
 0 <= v(3,1,1)p <= 52
 0 <= v(3,1,1)n <= 86
 0 <= u(1,3,1)p <= 940
 0 <= u(1,3,1)n <= 940
 0 <= u(3,1,1)p <= 940
 0 <= u(3,1,1)n <= 940
 12 <= x(2,1) <= 86
 0 <= y(2,3,1) <= 1
 0 <= y(3,2,1) <= 1
 0 <= v(2,3,1)p <= 79
 0 <= v(2,3,1)n <= 60
 0 <= v(3,2,1)p <= 46
 0 <= v(3,2,1)n <= 93
 0 <= u(2,3,1)p <= 940
 0 <= u(2,3,1)n <= 940
 0 <= u(3,2,1)p <= 940
 0 <= u(3,2,1)n <= 940
 0 <= x(3,1) <= 65
 11 <= x(0,2) <= 81
 0 <= y(0,1,2) <= 1
 0 <= y(1,0,2) <= 1
 0 <= v(0,1,2)p <= 60
 0 <= v(0,1,2)n <= 83
 0 <= v(1,0,2)p <= 69
 0 <= v(1,0,2)n <= 74
 0 <= u(0,1,2)p <= 940
 0 <= u(0,1,2)n <= 940
 0 <= u(1,0,2)p <= 940
 0 <= u(1,0,2)n <= 940
 0 <= y(0,2,2) <= 1
 0 <= y(2,0,2) <= 1
 0 <= v(0,2,2)p <= 69
 0 <= v(0,2,2)n <= 75
 0 <= v(2,0,2)p <= 66
 0 <= v(2,0,2)n <= 78
 0 <= u(0,2,2)p <= 940
 0 <= u(0,2,2)n <= 940
 0 <= u(2,0,2)p <= 940
 0 <= u(2,0,2)n <= 940
 0 <= y(0,3,2) <= 1
 0 <= y(3,0,2) <= 1
 0 <= v(0,3,2)p <= 52
 0 <= v(0,3,2)n <= 83
 0 <= v(3,0,2)p <= 67
 0 <= v(3,0,2)n <= 68
 0 <= u(0,3,2)p <= 940
 0 <= u(0,3,2)n <= 940
 0 <= u(3,0,2)p <= 940
 0 <= u(3,0,2)n <= 940
 13 <= x(1,2) <= 86
 0 <= y(1,2,2) <= 1
 0 <= y(2,1,2) <= 1
 0 <= v(1,2,2)p <= 74
 0 <= v(1,2,2)n <= 73
 0 <= v(2,1,2)p <= 62
 0 <= v(2,1,2)n <= 85
 0 <= u(1,2,2)p <= 940
 0 <= u(1,2,2)n <= 940
 0 <= u(2,1,2)p <= 940
 0 <= u(2,1,2)n <= 940
 0 <= y(1,3,2) <= 1
 0 <= y(3,1,2) <= 1
 0 <= v(1,3,2)p <= 57
 0 <= v(1,3,2)n <= 81
 0 <= v(3,1,2)p <= 63
 0 <= v(3,1,2)n <= 75
 0 <= u(1,3,2)p <= 940
 0 <= u(1,3,2)n <= 940
 0 <= u(3,1,2)p <= 940
 0 <= u(3,1,2)n <= 940
 9 <= x(2,2) <= 83
 0 <= y(2,3,2) <= 1
 0 <= y(3,2,2) <= 1
 0 <= v(2,3,2)p <= 54
 0 <= v(2,3,2)n <= 85
 0 <= v(3,2,2)p <= 72
 0 <= v(3,2,2)n <= 67
 0 <= u(2,3,2)p <= 940
 0 <= u(2,3,2)n <= 940
 0 <= u(3,2,2)p <= 940
 0 <= u(3,2,2)n <= 940
 19 <= x(3,2) <= 84
 10 <= x(0,3) <= 80
 0 <= y(0,1,3) <= 1
 0 <= y(1,0,3) <= 1
 0 <= v(0,1,3)p <= 72
 0 <= v(0,1,3)n <= 71
 0 <= v(1,0,3)p <= 63
 0 <= v(1,0,3)n <= 80
 0 <= u(0,1,3)p <= 940
 0 <= u(0,1,3)n <= 940
 0 <= u(1,0,3)p <= 940
 0 <= u(1,0,3)n <= 940
 0 <= y(0,2,3) <= 1
 0 <= y(2,0,3) <= 1
 0 <= v(0,2,3)p <= 71
 0 <= v(0,2,3)n <= 73
 0 <= v(2,0,3)p <= 63
 0 <= v(2,0,3)n <= 81
 0 <= u(0,2,3)p <= 940
 0 <= u(0,2,3)n <= 940
 0 <= u(2,0,3)p <= 940
 0 <= u(2,0,3)n <= 940
 0 <= y(0,3,3) <= 1
 0 <= y(3,0,3) <= 1
 0 <= v(0,3,3)p <= 70
 0 <= v(0,3,3)n <= 65
 0 <= v(3,0,3)p <= 61
 0 <= v(3,0,3)n <= 74
 0 <= u(0,3,3)p <= 940
 0 <= u(0,3,3)n <= 940
 0 <= u(3,0,3)p <= 940
 0 <= u(3,0,3)n <= 940
 1 <= x(1,3) <= 74
 0 <= y(1,2,3) <= 1
 0 <= y(2,1,3) <= 1
 0 <= v(1,2,3)p <= 65
 0 <= v(1,2,3)n <= 82
 0 <= v(2,1,3)p <= 66
 0 <= v(2,1,3)n <= 81
 0 <= u(1,2,3)p <= 940
 0 <= u(1,2,3)n <= 940
 0 <= u(2,1,3)p <= 940
 0 <= u(2,1,3)n <= 940
 0 <= y(1,3,3) <= 1
 0 <= y(3,1,3) <= 1
 0 <= v(1,3,3)p <= 64
 0 <= v(1,3,3)n <= 74
 0 <= v(3,1,3)p <= 64
 0 <= v(3,1,3)n <= 74
 0 <= u(1,3,3)p <= 940
 0 <= u(1,3,3)n <= 940
 0 <= u(3,1,3)p <= 940
 0 <= u(3,1,3)n <= 940
 0 <= x(2,3) <= 74
 0 <= y(2,3,3) <= 1
 0 <= y(3,2,3) <= 1
 0 <= v(2,3,3)p <= 64
 0 <= v(2,3,3)n <= 75
 0 <= v(3,2,3)p <= 63
 0 <= v(3,2,3)n <= 76
 0 <= u(2,3,3)p <= 940
 0 <= u(2,3,3)n <= 940
 0 <= u(3,2,3)p <= 940
 0 <= u(3,2,3)n <= 940
 7 <= x(3,3) <= 72
End
